12,1,11,1,7,3,15,2,2,3,8,3,13,1,1,3,3,3,14,3,5,5,9,2,6,5,4,3,10,4;3,1,11,2,2,2,14,2,7,4,6,4,15,4,5,4,8,4,12,5,1,5,4,4,9,5,13,5,10,5;15,1,2,1,5,1,8,2,6,3,12,3,1,2,4,1,10,2,3,5,7,5,9,4,14,5,13,4,11,5;8,1,7,2,14,1,6,2,1,1,2,4,15,3,5,3,3,2,9,1,12,4,13,2,10,3,11,4,4,5;7,1,6,1,12,2,11,3,5,2,10,1,2,5,15,5,1,4,3,4,4,2,9,3,14,4,13,3,8,5;
